(set-info :smt-lib-version 2.8)
(set-logic QF_EIA)
(set-info :source |
Generated by: Florian Frohn
Generator: LoAT
Application: proving unsatisfiability of CHCs
Target solver: SwInE
Time limit: 1.0
Benchmarks generated by the verification tool LoAT to evaluate the SMT solver
SwInE. We extracted all benchmarks with exponentiation that were generated by
LoAT when analyzing the examples from the category LIA-Lin (linear CHCs with
linear integer arithmetic) of the CHC competitions 2022 and 2023, and when
analyzing the examples from the categories "Termination of Integer Transition
Systems" and "Complexity of Integer Transition Systems" of the Termination and
Complexity Competition 2024. From the entire set, we selected those where
* SwInE v0.1.0 or SwInE-Z3 v0.1.2 failed or needed more than 1 second, or
* SwInE-Z3 v0.1.2 failed without phasing, a technique to prevent SwInE from
  computing with huge constants (described here
  https://arxiv.org/abs/2502.04761)
If several selected benchmarks only differed in lines not containing
exponentiation, we kept only one of them. This benchmark is known to be
satisfiable with the slightly different semantics of exponentiation used by the
versions of SwInE mentioned above.
|)
(set-info :license "https://creativecommons.org/licenses/by/4.0/")
(set-info :category "industrial")
(set-info :status unknown)

(declare-fun i1 () Int)
(declare-fun it186 () Int)
(declare-fun it187 () Int)
(declare-fun it15 () Int)
(declare-fun it188 () Int)
(declare-fun it14 () Int)
(declare-fun it13 () Int)
(declare-fun it189 () Int)
(declare-fun bt213 () Bool)
(declare-fun bt214 () Bool)
(declare-fun bt215 () Bool)
(declare-fun bt216 () Bool)
(declare-fun it17 () Int)
(declare-fun it16 () Int)
(declare-fun it18 () Int)
(declare-fun bt25 () Bool)
(declare-fun bt28 () Bool)
(declare-fun bt26 () Bool)
(declare-fun bt27 () Bool)
(declare-fun it193 () Int)
(declare-fun it194 () Int)
(declare-fun it195 () Int)
(declare-fun it196 () Int)
(declare-fun bt217 () Bool)
(declare-fun bt218 () Bool)
(declare-fun bt219 () Bool)
(declare-fun bt220 () Bool)
(declare-fun it356 () Int)
(declare-fun it358 () Int)
(declare-fun it359 () Int)
(declare-fun it360 () Int)
(declare-fun it361 () Int)
(declare-fun bt405 () Bool)
(declare-fun bt406 () Bool)
(declare-fun bt407 () Bool)
(declare-fun bt408 () Bool)
(declare-fun it198 () Int)
(declare-fun it197 () Int)
(declare-fun it199 () Int)
(declare-fun bt224 () Bool)
(declare-fun bt223 () Bool)
(declare-fun bt222 () Bool)
(declare-fun bt221 () Bool)
(declare-fun it364 () Int)
(declare-fun it365 () Int)
(declare-fun it366 () Int)
(declare-fun it367 () Int)
(declare-fun bt409 () Bool)
(declare-fun bt410 () Bool)
(declare-fun bt411 () Bool)
(declare-fun bt412 () Bool)
(assert (= (+ i1 (- 1)) 0))
(assert (= (+ it186 (- 2)) 0))
(assert (= (+ (* it15 (- 1)) it187) 0))
(assert (= (+ (* it14 (- 1)) it188) 0))
(assert (= (+ it189 (* it13 (- 1))) 0))
(assert (or (not bt213) (and false bt213)))
(assert (or bt214 (and false (not bt214))))
(assert (or (not bt215) (and false bt215)))
(assert (or (not bt216) (and false bt216)))
(assert (and bt27
     (not bt26)
     (not bt28)
     (not bt25)
     (= (+ it18 (- 1)) 0)
     (= (+ it189 (* it16 (- 1))) 0)
     (not bt213)
     (= (+ (* it17 (- 1)) it188) 0)
     (not bt215)
     (= (+ it186 (- 2)) 0)
     (not bt216)
     bt214))
(assert (= (+ it193 (- 2)) 0))
(assert (= (+ (* it18 (- 1)) it194) 0))
(assert (= (+ it195 (* it17 (- 1))) 0))
(assert (= (+ (* it16 (- 1)) it196) 0))
(assert (or (and (not bt27) (not bt217)) (and bt27 bt217)))
(assert (or (and (not bt28) (not bt218)) (and bt28 bt218)))
(assert (or (and (not bt26) (not bt219)) (and bt26 bt219)))
(assert (or (and (not bt25) (not bt220)) (and bt25 bt220)))
(assert (let ((a!1 (+ (+ 0 it196)
              (* (** 3 (+ it356 (- 1))) (+ 0 it194) (+ 0 (- 1))))))
  (and (not bt218)
       bt217
       (> a!1 (+ 0 0))
       (>= (+ (* it193 (- 1)) 2) 0)
       (> (+ it196 (* it194 (- 1))) 0)
       (not bt219)
       (>= (+ it193 (- 2)) 0)
       (>= (* it195 (- 1)) 0)
       (not bt220)
       (>= (+ it356 (- 1)) 0))))
(assert (= (+ it358 (* it193 (- 1))) 0))
(assert (= (+ (* (+ 0 it194) (** 3 it356) (+ 0 (- 1))) (+ 0 it359))
   (+ 0 0)))
(assert (= (+ (* it195 (- 1)) it360) 0))
(assert (= (+ it361 (* it196 (- 1))) 0))
(assert (or bt405 (and false (not bt405))))
(assert (or (and false bt406) (not bt406)))
(assert (or (not bt407) (and false bt407)))
(assert (or (not bt408) (and false bt408)))
(assert (and (> (+ it361 (* it359 (- 1))) 0)
     bt405
     bt221
     bt222
     (not bt407)
     (not bt223)
     (not bt224)
     (= (+ it361 (* it199 (- 1))) 0)
     (= (+ it359 (* it197 (- 1))) 0)
     (not bt406)
     (not bt408)
     (= (+ (* it198 (- 1)) it360) 0)
     (= (+ it358 (- 2)) 0)))
(assert (= (+ it364 (- 2)) 0))
(assert (= (+ it365 (* it197 (- 1))) 0))
(assert (= (+ (* it198 (- 1)) it366) 0))
(assert (= (+ (* it199 (- 1)) it367) 0))
(assert (or (and (not bt222) (not bt409)) (and bt409 bt222)))
(assert (or (and bt221 bt410) (and (not bt221) (not bt410))))
(assert (or (and bt223 bt411) (and (not bt223) (not bt411))))
(assert (or (and (not bt224) (not bt412)) (and bt224 bt412)))
(check-sat)
(exit)
